<?xml version="1.0"?>
<VTKFile type="UnstructuredGrid" version="1.0" byte_order="LittleEndian" header_type="UInt64">
  <UnstructuredGrid>
    <Piece NumberOfPoints="20" NumberOfCells="0">
    <FieldData>
        <DataArray Name="TimeValue" NumberOfTuples="1" type="Float64" format="ascii" RangeMin="0.122654987" RangeMax="0.122654987">
          0.1226549870000000
        </DataArray>
    </FieldData>
    <PointData Scalars="temp" Vectors="force" Tensors="stress" Normals="normals">
        <DataArray Name="temp" NumberOfComponents="1" type="Float64" format="ascii" RangeMin="0.05731598524720616" RangeMax="0.9191090317991818">
          0.9191090317991818 0.6421955999238554 0.7537122297291767 0.1393145681027350 0.0873195479896001 0.7880020580364918
          0.3261509370344888 0.5410678214759677 0.2402351758680060 0.5454229255759049 0.4005545036798892 0.7151918872797569
          0.8366799410811948 0.5884811425466829 0.2961545640333596 0.2810176906539642 0.7055972446574292 0.4225964301897521
          0.0573159852472062 0.7470273067071216
        </DataArray>
        <DataArray Name="2-components" NumberOfComponents="2" type="Float64" format="ascii" RangeMin="0.03606131000291102" RangeMax="0.9770526614339072">
          0.4523130130592968 0.1757747380313244 0.0493769993144870 0.2924753386949548 0.0667991310914613 0.7511564859911245
          0.0637715240806562 0.4319083194117714 0.3641724134430167 0.1519715256925609 0.5467103397159158 0.4432930376023336
          0.0360613100029110 0.8228931912295053 0.2732926831299841 0.1689852192728417 0.6443697547109174 0.1075410788025926
          0.3532450981171027 0.3857036581156064 0.4455559100158843 0.9770526614339072 0.7293940090533850 0.3122350583311531
          0.8947552392940534 0.7832735951745574 0.2620003413345412 0.3094831861549427 0.1294506297724709 0.4221713562335928
          0.9397650349673574 0.3670428731605497 0.4347749726828846 0.9170935543593193 0.9472939210005341 0.2547729480887090
          0.7097035779964328 0.0499764048396870 0.1347439306209732 0.5065059431067037
        </DataArray>
        <DataArray Name="3-components" NumberOfComponents="3" type="Float64" format="ascii" RangeMin="0.01192155358275615" RangeMax="0.9986326035811655">
          0.5890720970505128 0.3268986086578718 0.1448144482177102 0.2576384903723663 0.8574458883976873 0.6839737520406283
          0.9986326035811655 0.3194556656082242 0.4534082266242594 0.8676221777748950 0.6385221808378060 0.3318923019829476
          0.5419776327479333 0.1123238088406830 0.8165234436255825 0.2209316463478144 0.5149742681090496 0.5260877679247680
          0.2770886884732112 0.9044206316605501 0.4204270035661765 0.9490145030363609 0.7864711816566549 0.4815468959885630
          0.0119215535827562 0.0597207807092479 0.8257177483439162 0.4046369872739349 0.0531531123171690 0.2596390482071086
          0.2811506610562717 0.9433030410624577 0.8936293596271191 0.2022892694899581 0.1003608087345019 0.5730430655359530
          0.7453773741488717 0.6007604785160442 0.9092395428890321 0.9385777624120453 0.5615661006777212 0.8908316333576722
          0.3124782869770458 0.7710535361311034 0.2136507101264129 0.2883443963127228 0.2734427951922838 0.2485007122242413
          0.0144745384478043 0.6091129763543156 0.8618458103278591 0.2591405994003485 0.8668647914278148 0.4265298541907321
          0.1603909008190777 0.0565316315409430 0.4228071934122273 0.7359960547933326 0.4769537916279307 0.7006992708984805
                  </DataArray>
        <DataArray Name="4-components" NumberOfComponents="4" type="Float64" format="ascii" RangeMin="0.02079884965962986" RangeMax="0.9983199556809254">
          0.9261806156102312 0.4526842850674920 0.3917947827194505 0.3592419246788816 0.9207452697946850 0.0278180708490150
          0.2349904981777623 0.0795443510228309 0.5657883468686661 0.2948885661324933 0.7193769267541885 0.0988020129816635
          0.0268196366997491 0.7018310907399513 0.7914683737300843 0.3782688291338249 0.2473226108228560 0.2627823218786545
          0.4984137186921088 0.3041873590603215 0.7186392108467865 0.6106608253770643 0.0646729072148587 0.1480143523868742
          0.9702434112898988 0.4715222037958284 0.7331722522876482 0.2106973939969884 0.6426786141941642 0.9115921673564267
          0.0345287813667512 0.1773567248506672 0.2962514934470256 0.3126333475071587 0.3249249442272334 0.5780774130897147
          0.9983199556809254 0.3547831120917448 0.0207988496596299 0.0996248310145578 0.3916196439944402 0.6046746919418857
          0.8792924894608538 0.1426086960632018 0.3544317346711524 0.5498989637627353 0.8375566887711513 0.5901740250590545
          0.9947671646588059 0.7489206394212843 0.0304343354124273 0.9234538424010137 0.9798888990537769 0.3373415663707561
          0.6533569100468444 0.5805916314301794 0.9231814078620875 0.8286460163085659 0.8841588239981764 0.8735697354630155
          0.4614049918736365 0.7027930867636041 0.9600580430351148 0.2867753000242432 0.4536384129556481 0.2310747199624076
          0.5617334275024616 0.2454226786765831 0.3422069204813598 0.2287033470751366 0.4072568134150685 0.1518073748623180
          0.9881406358732199 0.4553911259175266 0.5373672853581730 0.7672507985863412 0.9266745999442119 0.7322632355246509
          0.0799274071793086 0.8152930007654599
        </DataArray>
        <DataArray Name="force" NumberOfComponents="3" type="Float64" format="ascii" RangeMin="0.029934121839885197" RangeMax="19.611756135389285">
          11.2088129469097417 11.2511143380667313 18.1455797174448321 4.7825278628581103 18.3429512683859173 4.8150475345848687
          17.5805341480186499 10.9762323864013585 13.3196248038330882 10.1808531889445852 9.2867654034976077 16.9917056274473168
          15.4888337946381700 4.0894705289001738 9.7001434552520482 11.6789509404214531 14.2878160304604958 11.5884130051025735
          0.1627231843370747 13.9111468363517776 2.1070183957656430 19.2776581450866438 3.4636967853947054 18.8648124369664885
          10.7286665234191219 18.3846682182562908 13.0165170990289258 19.6117561353892853 0.4083834786320439 9.7362530226682615
          10.4423698601556243 4.7796269212923637 14.3370248902264645 1.9628429684786197 4.5297310401825053 11.1120895471163408
          0.0299341218398852 16.1420471021907446 16.2622491272761458 4.5829493759636275 4.9717758050303402 12.8794732043777209
          16.4952649592274483 16.0595120551352224 10.4049636810470894 2.6450632958845199 2.5438288991981350 19.1409550052160249
          3.0244851178412269 7.6506619766617501 13.9829063504056030 0.3118781459962428 15.5389139546783746 4.4820994124755353
          0.7347992698621120 4.7282458015022151 4.8594009774519957 8.7204104902532986 11.3312272451549152 18.5761198288786957
                  </DataArray>
        <DataArray Name="stress" NumberOfComponents="9" type="Float64" format="ascii" RangeMin="25.484922397537744" RangeMax="989.5774967048105">
          378.4823133858192818 394.0284510305005483 106.1313808315356084 281.5218817785334409 812.6858225908807754 150.0351492335972807
          174.4815800611297902 520.2575831204577526 938.0320479661228319 667.8576604892062960 460.4094718873986949 783.5553717596088745
          357.4715982219876196 743.8496654999260045 577.7978888383781850 311.2155744656847105 683.4919652519067768 256.9930928401772121
          42.3914469062061130 778.7215439693829921 687.7730616329113218 192.0308478196115516 895.8280484611312886 40.6461423522439560
          658.0427745051272268 922.0241036808812396 215.8557629162897058 416.7983787581560478 143.1629662648433623 776.4794762490425910
          896.4755769665345042 330.1329765548026671 117.4629618912284030 79.8787452437370575 463.1870873855465902 344.1690201300573335
          804.6139547333735891 837.4962668286293592 624.6757955730357708 292.8339786520222106 988.9946241921485353 655.1113152945814591
          670.4486104950480012 484.5302770559284227 771.8922125633127962 720.1003784141075812 305.6524488305709610 568.7212265321652467
          603.5674340971868332 975.5801317794793022 432.8101873276403353 348.3316503518771015 156.7466587918275991 234.5447222168872656
          305.2835859437577142 178.9757041584103661 108.8111907131504807 41.5349404367364485 624.0055186178715303 408.5296800343228938
          83.8779654146071323 142.5054356802638722 859.1832025615215116 951.6426468787626618 253.1544640199696516 237.2063592991835321
          25.4849223975377441 68.9716778550071297 136.2314288866146512 239.1870766414089360 464.1121273494808293 296.2931579008676408
          482.8574528780482638 298.9900815340190547 752.8553653406353305 148.7139504945724866 843.4198569744044107 542.3801510732118913
          266.3224883756356576 166.1054592356799731 545.2715034530169760 540.4772655009574009 425.6977815611709843 984.9441622322747207
          192.2478442557223843 302.9402465121239061 252.7407906607988082 241.4935871685083271 213.8364497328251161 158.8137305426818955
          881.0804503539732195 266.9829656894703476 269.2309065168845450 375.3796919056032948 171.9466263225641853 989.5774967048105282
          247.0353873140461758 899.0530209803387152 167.3720731319060633 600.2178745176197481 380.9270559237240832 321.0439769060571393
          143.2560067410149145 965.1661533229571432 147.7750567780307165 684.7911076785098885 868.1078675161218143 288.0191656191515222
          58.8454659599059156 123.0475573466771664 276.9718433448198311 179.6719531260621068 153.1321627687739522 58.8762104322741990
          859.7448632901533756 599.1674586192078777 643.9086619093718582 58.4385906145578033 445.1130243356238338 600.0999190043047520
          824.1910181204996206 510.9869560283323153 102.7852599078639173 251.8934712527984914 664.6539864840136715 104.5995017338698858
          576.6277109490810062 817.0897333510744147 552.9934724827800210 714.2369348462848393 966.4072825743471640 962.9225456011854476
          160.5681377247443322 910.8104190770296782 634.9798606775482313 568.4868590387400218 430.3209447055837700 388.9270010162264839
          277.2728581250544266 296.5108033849998037 887.4141924268762978 160.9810806088679556 502.3286351313919340 687.6405769233253977
          581.1329173800503440 870.7245975527149540 379.2419244626618138 502.3371472863221925 52.1037453871661143 102.9230543931605126
          305.0676958957902798 281.9306490548997317 973.6648389658232645 743.0818060214866136 533.0142776511590910 474.0123481455792671
          196.8570009135668499 367.6859932128319315 555.5679077982383660 974.5196467903908797 328.2199952885185326 163.6737261926253382
          659.2989053860325157 796.4149740841819494 957.9495047872950408 659.2131632145187723 895.8493461158965374 92.4756204848951029
          344.1641824133579917 512.2463491257958594 311.6297892110146677 815.6347071838714555 95.8980665270567840 752.7646967370844777
          940.8106487502667505 255.1757519945270190 251.5617817151301097 555.3119787098257802 728.6494105480408052 772.4620663387114519
                  </DataArray>
        <DataArray Name="normals" NumberOfComponents="3" type="Float64" format="ascii" RangeMin="0.08514006309632582" RangeMax="0.9869760759847125">
          0.8057157698844276 0.3254338712686498 0.4948887689073616 0.0903470683395255 0.9656948727714468 0.2434559918042524
          0.3965223726958389 0.1262820985710209 0.9092979927021511 0.8288783121200609 0.1843982108712356 0.5281647882285282
          0.4231457541318496 0.1899547118586454 0.8859260004102417 0.3788224580109978 0.7264656580726466 0.5733595668928724
          0.4194340434048987 0.6156337919402205 0.6671357563901990 0.5606435633786151 0.4225484538697615 0.7121317286671074
          0.2743444844784723 0.9157016190714424 0.2936420417211746 0.2153786884860522 0.8577777995534617 0.4667218305792536
          0.5687396059197714 0.5537937138027842 0.6081511187285141 0.5164573381667893 0.8494191521040191 0.1084385627558943
          0.6060122587938316 0.0851400630963258 0.7908857767386842 0.2798991224904716 0.4760503975772007 0.8336860921208012
          0.1332007451315774 0.0901985971632135 0.9869760759847125 0.9299916026459157 0.3134159211303760 0.1920574898046918
          0.5757786852773533 0.1341183624262337 0.8065303282830645 0.5900366508365934 0.6174771578688182 0.5201718083285393
          0.2152944946306120 0.2913023875528221 0.9320896950335706 0.2748396161859574 0.4760641055088307 0.8353598941898231
                  </DataArray>
      </PointData>
    <Points>
        <DataArray Name="Points" NumberOfComponents="3" type="Float64" format="ascii" RangeMin="0.013125007239907727" RangeMax="0.9898021055208226">
          0.7130117948434542 0.8034842965990345 0.7093529424815532 0.7770313974501188 0.3039902820743910 0.2618678180700630
          0.4066818765705809 0.8613277296850279 0.3765911070921362 0.2109262255055764 0.4393269837373881 0.6506502356583936
          0.3265234631081694 0.0346736673430583 0.4775772195909449 0.9044066934045936 0.0364207628553652 0.7471741820270142
          0.6147218355366251 0.1790022426415987 0.1887684864007376 0.6845784590679940 0.1625223735708933 0.9319818664015619
          0.2278311302710371 0.3240146655316288 0.2576462457135213 0.4604506285278193 0.9898021055208226 0.4255804927825503
          0.5291508462294261 0.6991211339234115 0.0131250072399077 0.4929696261125559 0.1549039836238520 0.8907319675628973
          0.1953994988829207 0.8750252995828711 0.6231503040278736 0.6089230710111955 0.0310212728623844 0.2643146408981070
          0.2484426097061434 0.8820570566770942 0.5243979544590620 0.5885551638083589 0.2290937672619628 0.0480137546503639
          0.3639902297295018 0.3226358535960041 0.6077762827740427 0.6636240214251207 0.4664799073714897 0.1863569745617283
          0.7382099240331319 0.1621360618777863 0.1379049042155798 0.2976148973898980 0.5230962290980808 0.5355790761051202
                  </DataArray>
      </Points>
    <Cells>
        <DataArray Name="connectivity" type="Int32" format="ascii" RangeMin="1e+299" RangeMax="-1e+299">
          
        </DataArray>
        <DataArray Name="offsets" type="Int32" format="ascii" RangeMin="1e+299" RangeMax="-1e+299">
          
        </DataArray>
        <DataArray Name="types" type="UInt8" format="ascii" RangeMin="1e+299" RangeMax="-1e+299">
          
        </DataArray>
      </Cells>
    </Piece>
  </UnstructuredGrid>
</VTKFile>