<?xml version="1.0"?>
<VTKFile type="UnstructuredGrid" version="1.0" byte_order="LittleEndian" header_type="UInt64">
  <UnstructuredGrid>
    <Piece NumberOfPoints="98" NumberOfCells="475">
    <FieldData>
        <DataArray Name="TimeValue" NumberOfTuples="1" type="Float64" format="ascii" RangeMin="0.122654987" RangeMax="0.122654987">
          0.1226549870000000
        </DataArray>
        <DataArray Name="TMSTEP" NumberOfTuples="1" type="Int64" format="ascii" RangeMin="0" RangeMax="34">
          0 1 2 3 4 5 6 7 8 9 10 11 12 13 14 15 16 17 18 19 20 21 22 23
          24 25 26 27 28 29 30 31 32 33 34
        </DataArray>
        <DataArray Name="Energy" NumberOfTuples="1" type="Float64" format="ascii" RangeMin="0.016429614650591562" RangeMax="0.9337077831017695">
          0.0164296146505916 0.2803243727777717 0.3538453412162437 0.2543860430098172 0.3653367608279918 0.5433881538799702
          0.9337077831017695 0.3064515895847083 0.7644656354531858 0.0729523903831968 0.8066849611478607 0.7060509035226120
          0.9073932679108058 0.7591569884705360 0.7100865957385716 0.3022718758961325 0.4734514136538924 0.2524340972970325
          0.2375056023730666 0.2697535243948739 0.1247090585413141 0.0594970666161930 0.5234710576573579 0.2963465624660002
          0.4073780284746817 0.5898444430662940 0.5376633906135346 0.2523496949393512 0.2950585682258576 0.0337239190957914
          0.4655686779118795 0.8061877687761208 0.7596364864710505 0.3173492498527114 0.3724443513696593
        </DataArray>
    </FieldData>
    <PointData Scalars="temp" Vectors="force" Tensors="stress" Normals="normals">
        <DataArray Name="temp" NumberOfComponents="1" type="Float64" format="ascii" RangeMin="0.018890726796434" RangeMax="0.9901101845862561">
          0.5232633927110754 0.3560494105104665 0.9243751540367312 0.6175543967037361 0.6431716315977716 0.9681967182176967
          0.2132244920543770 0.6320226124400673 0.4469755558450341 0.4672242211058258 0.3983165366318399 0.3844327849581031
          0.7481868168265932 0.2823305501768082 0.1642422399487951 0.2042679998357511 0.9583212604144772 0.3995133455800379
          0.5459642208501608 0.5980078810702200 0.3697840808569901 0.5774564390907218 0.0188907267964340 0.3913319566374115
          0.7520363698888020 0.6282640504752013 0.2676273113183325 0.2850348633895688 0.4189057900623258 0.3503471398017745
          0.3738729779940742 0.9527908609710527 0.1033057882032156 0.6901719117150532 0.4479244816396298 0.9554385688908371
          0.7526201947901212 0.5781336472337527 0.0978850865991930 0.5135064188216244 0.8000899070397371 0.3959202754895073
          0.8492935406266832 0.7937251451606406 0.4464123414449421 0.9813208346604262 0.7373369419320472 0.6273163708860597
          0.6483978444880616 0.1790937076696563 0.0719047136309544 0.4316761847093894 0.8147514954267142 0.9005040018325876
          0.8433916884882821 0.3754627887077751 0.7568191563377502 0.6620139140721900 0.7351848304472470 0.8813296203627071
          0.4451442568583581 0.8044077586000425 0.9881296506924903 0.8007171139085076 0.1122933754038044 0.1225818159593819
          0.8371086843337281 0.7143849440885646 0.9591649145166879 0.2092711406317759 0.5374244377133548 0.2925351539696085
          0.4384385269069316 0.1940536814971002 0.0827238908345980 0.7820840269081437 0.5888742944562425 0.1859630381347580
          0.0622405655244201 0.8739365092016919 0.4687186569172690 0.5588545132040584 0.0378394211451073 0.2422193745769267
          0.3490386367778775 0.6933862474850077 0.2952924156228479 0.0879634980994813 0.3279634050480208 0.0601338670265295
          0.8533894093211698 0.2487080178434682 0.3710769478710441 0.8782347845861201 0.3783466656688965 0.1166112360801882
          0.9901101845862561 0.5027116964030280
        </DataArray>
        <DataArray Name="2-components" NumberOfComponents="2" type="Float64" format="ascii" RangeMin="0.0010208312253622287" RangeMax="0.9993545168104067">
          0.4627020356312563 0.4120616483970365 0.5736699127889473 0.9126731480120107 0.7336739003921452 0.3992498796330022
          0.4812826274288743 0.9669339304375286 0.1580401628504364 0.8001938766160284 0.8266861893386148 0.2739828527691759
          0.1508886422362052 0.6744856149151480 0.0527138156853354 0.4504940568909971 0.5385666376349413 0.7457947207626882
          0.5922242368062245 0.2623683792345196 0.8470910367718487 0.8278307676005318 0.7317376938000214 0.1872340444831171
          0.1552552107172562 0.3639980708666333 0.4950482563742492 0.0496616762418570 0.5760479711484756 0.2685279370791880
          0.7728632975228348 0.3113905889553356 0.1685857020553462 0.3356741820383118 0.7890122122989706 0.3195387799521584
          0.5126450211308102 0.2782755329550120 0.4682567948746995 0.0208183862029978 0.0285868626670726 0.4006207149656305
          0.5070546371175896 0.5251035008720317 0.0917050510075382 0.5751657807713135 0.5995756534338390 0.3734347177265993
          0.3058080166025725 0.7114091115989954 0.4484035808735372 0.6092161258290444 0.3510543242421080 0.1591633183234727
          0.2143168852683055 0.2737063913486105 0.3733076469004174 0.6554089827643977 0.4734615157502536 0.8301302893255217
          0.2303390401359008 0.5929254085025851 0.1676632842389342 0.7474109250942221 0.3336272302620839 0.0103220237097095
          0.5389619081968032 0.5221598576513335 0.6146378340835578 0.1222057637465755 0.7067122860920344 0.5460885123623402
          0.7969703178237786 0.3986583407098296 0.0984072556183255 0.6058545025775685 0.9255852384240704 0.1635510257125538
          0.3375904372793096 0.9673248605215103 0.4127432599730957 0.6161143953631395 0.7012437382829652 0.7976774149994063
          0.6413941303188798 0.3677689618858744 0.3418686477830903 0.6912855254086586 0.4905290597083557 0.7268470151976125
          0.2853230793747563 0.0901691845772395 0.6528703933884142 0.9993545168104067 0.4874396293658186 0.4212702523392217
          0.2111358900709007 0.0978343541982857 0.2295313464670893 0.7800370180232973 0.6628431644700030 0.0236369069400759
          0.7761005874330426 0.2674408228940450 0.2884275016865393 0.9889892027464067 0.9144972327232375 0.1326559500398594
          0.7977858828205963 0.5792544380880793 0.1094810743231001 0.6045320041679991 0.7476345849597080 0.3985388839995314
          0.5407068188229355 0.6070772123216759 0.0010208312253622 0.2862929621730980 0.1366837639703210 0.9970238256312034
          0.0755427778230278 0.0547987295395927 0.3451083263976263 0.0594517182353566 0.7064718127430778 0.9277770974773132
          0.0345771841747209 0.8566159534558571 0.3407945457710152 0.4403256955512704 0.6986256494093516 0.8511867378822612
          0.2322172828276953 0.5401340180472524 0.3883719878218147 0.5896287444167421 0.0827641866316455 0.1758964975020876
          0.9442467288841149 0.5984405055813532 0.0153058850329763 0.4488974341215151 0.8476934921216773 0.2976779883878502
          0.5555344139987856 0.4678425650611135 0.9589223335397612 0.6707018372112837 0.9238053679123880 0.3799495696913897
          0.2474732354856052 0.3599837035712170 0.5114803579122723 0.1471773490395593 0.6146602825960759 0.2443141861279541
          0.3906009998517247 0.0149205919557579 0.5291072977929402 0.4586761633480204 0.1944515479646832 0.8774092014552445
          0.9680738754125490 0.3877317711718616 0.1036364490911228 0.5510319749454550 0.7977432955297401 0.1756845492190215
          0.6873266005900069 0.0638169425661527 0.3017065997863499 0.7405759172551262 0.5349868244354462 0.7534109227763931
          0.4822624545223297 0.3872353067076433 0.4796925818195262 0.2872563151214357 0.1753059934417290 0.1550767746705586
          0.7733313678822326 0.8350078375587994 0.9733887963783096 0.7741052487155705 0.6214213730968958 0.7330206553019076
          0.5527974404646830 0.5720387542265856 0.4189214757101666 0.1797945954243279 0.5598540634451057 0.8235961938031503
          0.6075129593765624 0.8829185241789297 0.7724621007855713 0.7932694153879861
        </DataArray>
        <DataArray Name="3-components" NumberOfComponents="3" type="Float64" format="ascii" RangeMin="0.00697574272128354" RangeMax="0.9957022707363694">
          0.3959370177104977 0.1321346928415144 0.9957022707363694 0.7685426750678167 0.1719334355043084 0.5786116554953625
          0.3578992394223189 0.2087049827857473 0.0867848175941277 0.9738092382957999 0.3438004232440458 0.2824673622577308
          0.2870075774442319 0.1607377784375679 0.8768668708831532 0.1244958486220122 0.8573491707866162 0.1888349912938931
          0.7685116737854183 0.4553873222794823 0.8311583211375122 0.6666394321633687 0.0443430075121561 0.2317451464654704
          0.2511086550854469 0.5997892953022738 0.2580011944759319 0.1056152415000738 0.8835771520151523 0.7557616651218442
          0.3213389193168895 0.8275241819878504 0.1353746771467994 0.5042917772585707 0.3759956205842707 0.7034740747478586
          0.6080430138505351 0.4500949396457234 0.2576851276395377 0.7964624173407814 0.5560810820406369 0.8892321897259500
          0.2319926101087547 0.4802646347532441 0.6647298874362092 0.1052122523817566 0.6598493266295095 0.2195761621627670
          0.8737595445094803 0.6145429757100416 0.9156281741412381 0.2370173593801176 0.3173940265653620 0.1007042731619506
          0.6988072054049057 0.6633938069228656 0.7249879345874023 0.9656076166206068 0.2275105582124937 0.5580406015699837
          0.8957665691828443 0.1975472176705592 0.2844953648451570 0.8548280785700196 0.5235536689366301 0.3297431860330982
          0.4640132788637400 0.3629261462478558 0.9544447034978267 0.5380811139528734 0.4856163353574064 0.2966615355065241
          0.7650321604379152 0.7648871752853855 0.7670897526064692 0.1909092321679240 0.6395939271109153 0.2971911998494829
          0.5701139555876044 0.7775639544858216 0.6950836157538216 0.5175718823378442 0.5578195817747035 0.6225548536632970
          0.7171713554534899 0.9216246419592604 0.6807238492162723 0.5330893826749662 0.6006531048830143 0.8105302718092130
          0.7606692333746795 0.0069757427212835 0.7460982533283740 0.6167475238767310 0.5967058946461570 0.0285497852108054
          0.4808599195139149 0.0426902775389643 0.6630874351467375 0.8044148675981959 0.0808886305227964 0.3899730854596851
          0.6552625957303970 0.2477229624653408 0.1706349843382318 0.6357817293055835 0.8493809869631977 0.7287949161378314
          0.4947790121851635 0.9886439445099069 0.8738850059132843 0.5654918923851298 0.8706722423325322 0.6069866402701093
          0.3490622736945519 0.6089291902525581 0.7966974650533819 0.6181902631506166 0.7912833499302144 0.1448331796392281
          0.4665218319008944 0.2466309700942084 0.6369144936209953 0.4316608827228484 0.7503716435593518 0.0078192047814943
          0.4875266978418982 0.6937034197459518 0.2185601535153547 0.7784148067726568 0.0634309575899157 0.8411006056284056
          0.5702430979617391 0.8147048198664099 0.2459193415366561 0.9172481593875291 0.4333331869592411 0.8892207762581561
          0.3816089750175916 0.6619434317188276 0.0620162079641979 0.2033061797258972 0.9776382224845614 0.5553505469357450
          0.9562803859609762 0.3790511539516196 0.3870793276633746 0.0291138151092121 0.9761561574059698 0.0898162195275950
          0.6451254378270467 0.2295039159038229 0.6216884832158212 0.1046633683707082 0.7800082984311015 0.2625326604105915
          0.2461482624859926 0.4551262560423621 0.1034935927271887 0.4706346767128244 0.6121409028164838 0.0675718685062875
          0.7647075655642430 0.6700970666270381 0.8032932340131698 0.9781582533046588 0.3529343436684904 0.4399046453981219
          0.8227422575131477 0.3429513409994397 0.0639093649921174 0.3679409552086901 0.9952671853877433 0.5794636736734783
          0.0250421702979845 0.8837083797377967 0.0772595488850731 0.3943233737429355 0.7928440583730763 0.7376047626055993
          0.9648552999829537 0.2389287114626962 0.5206322527545945 0.0983351798705611 0.1341331580296290 0.4171084795414063
          0.2039514517144266 0.6503634687846814 0.7493202001034418 0.1312064758182715 0.5982209183292252 0.1587164885432170
          0.4107506463783893 0.3724905226054058 0.2990520929065889 0.8922858466933502 0.9324682637370133 0.9429053998504120
          0.0315177594710983 0.1565990555302267 0.3934252430657919 0.7205489890694400 0.2745934717438567 0.4316896798345985
          0.1787980601100121 0.3622513668025094 0.5088174958142114 0.6835284807721292 0.2582854272624701 0.8964105163003068
          0.0816893960634201 0.4387754988844029 0.3994163890781560 0.5018358460287423 0.1761056689180331 0.9525922810449248
          0.1130890909337944 0.6005565331940966 0.1171311197652539 0.6623116175421665 0.2483652246957718 0.8956814911357948
          0.0412056597912570 0.5017321586649018 0.9767756478715170 0.9206156255162371 0.1720268663279906 0.2663498435365410
          0.4842175186955949 0.4838123810340171 0.7512248734982772 0.7779187666513998 0.2231153295144658 0.7714411303259398
          0.6995785343449606 0.4370020347064467 0.6088164574661412 0.2986845236243677 0.8580945635888099 0.8599436995056411
          0.6648275791311106 0.4804832862858324 0.6943789218683357 0.3820368751512481 0.1231743977126158 0.0362418358330681
          0.9171684905407427 0.5328515630437207 0.0578764728801873 0.5963642584780325 0.0651924536469431 0.5791318206998678
          0.7940223135363876 0.7782622990688464 0.8370854376737562 0.2173782516480345 0.4611514151709583 0.9407242619193813
          0.3169819924879888 0.0692986177346302 0.8077212168562448 0.6250211648947901 0.0728872313967656 0.1650115703288546
          0.9354869889229509 0.5132377189390548 0.7432805991013007 0.6345440325020101 0.7569005199240237 0.1108125324288713
          0.2114492762301085 0.7421209500209818 0.6516442772989443 0.2208372490886902 0.2579857362466821 0.1416135360243185
          0.6716476249724609 0.7509963062235276 0.4679781489940003 0.6662011241227854 0.7253673934646818 0.4565839967938599
          0.1659279070777949 0.7152392271177217 0.0094476341085491 0.6766546248504622 0.2116737146235712 0.5781205664492428
          0.3606986784532169 0.5373476404904579 0.0312391309332078 0.0935309527775745 0.5654258596612191 0.4933549421178993
                  </DataArray>
        <DataArray Name="4-components" NumberOfComponents="4" type="Float64" format="ascii" RangeMin="0.0021679325560567397" RangeMax="0.9960764996320337">
          0.4346748309322130 0.3220642954109557 0.0062263950599849 0.0737151178494130 0.0539201795235295 0.6798039006229138
          0.5500273845649549 0.5347282488901165 0.0767387959844464 0.6711429183806140 0.2176115805917300 0.4753594409825290
          0.9337516804459353 0.1021111481025472 0.2044204606938260 0.0037939495868201 0.3297690748477242 0.9241324203495521
          0.7982712785837751 0.0290714379783759 0.2692194427848057 0.9695141104130361 0.3090008720062422 0.8033901608302160
          0.8785521137838496 0.5179184112127887 0.9614782388606561 0.3175208696688832 0.7871958705242772 0.1804037800561749
          0.6161777555253786 0.0787254199622341 0.9051117007473103 0.0771094947349589 0.9588362141721601 0.5440923148342509
          0.8634945621439319 0.2405794370719853 0.4059594735292160 0.2925235663071808 0.7309894801048282 0.9700483721187488
          0.8318148406832973 0.4849158872100066 0.5017704290104593 0.3785371246509415 0.0205158449338875 0.9907952905474608
          0.1545654933391684 0.8782385634278128 0.6019489853133294 0.7906981230999223 0.2521929126363432 0.9716150255608206
          0.0672474944937144 0.4673686197663716 0.0337000095394104 0.5347613958477050 0.1164155276297819 0.9550270647902264
          0.5796338522273943 0.3412746271057875 0.8523204100536866 0.1972657806074329 0.8096282113891782 0.3047311952960293
          0.6500663143518912 0.8456637563467384 0.3906199913247039 0.0493153326814327 0.0953282361963043 0.4089217432664466
          0.9734786110287174 0.7813877948631190 0.0869568546620415 0.7417237568666443 0.5630292772867312 0.8719294300090183
          0.8044927228429963 0.3760636376786568 0.1306022635272779 0.2908653129507012 0.3505188438702752 0.2901130193235927
          0.0309346793427824 0.4092653096970628 0.9788367317195323 0.4223113198793231 0.0900433594418957 0.1787326345033293
          0.2966289948749271 0.6954539758304935 0.2832782062952210 0.3251789785540518 0.7688481562679232 0.4766407185048503
          0.9288534597190189 0.3341192036963977 0.9436476306446026 0.8789762057451738 0.0606108299327002 0.9254951873329387
          0.7412746153715273 0.8109872417934331 0.4360667170346966 0.7233454095760591 0.6976210279118584 0.2955977110451682
          0.0994604820813603 0.1875580422474142 0.8431228106210912 0.6213582623034001 0.6158399792301240 0.9406265592401716
          0.8845641277007388 0.9350856253927768 0.2970236729050861 0.8712474915967705 0.6910999373713885 0.3187032732785566
          0.0127516549008907 0.8755324934933010 0.5639212047451645 0.1967190822555136 0.9738387864540907 0.6568564085127088
          0.0096719914074663 0.4238716923324118 0.3943384132270378 0.5395962035976353 0.3564427828885958 0.2408352500616302
          0.7594055518045913 0.7632195886304822 0.4137798466081193 0.4414728807283862 0.5239588201936661 0.5330972627254891
          0.9141526095541878 0.6308069665444429 0.5170567967508454 0.1320175579472910 0.2107269322401846 0.5006082952330471
          0.2035097924389047 0.0963022916895151 0.2210449262099226 0.7032288137490658 0.7594632075907954 0.5307951061501054
          0.7791221651707082 0.2055779572836323 0.3038993788887456 0.9507640657060110 0.4129407322939939 0.1775009527834303
          0.1476062761103801 0.1751860610377259 0.3900752085745849 0.8771340742513215 0.9053619159104762 0.1499422572651893
          0.5299226127542728 0.6017653172250573 0.5825611801123584 0.9077714583272647 0.0333926144946559 0.9403067947106344
          0.9513428539123672 0.1294283488054044 0.5599745850942128 0.5002092571867237 0.3101720177615666 0.2570498427758426
          0.6925285230652607 0.8481230391570452 0.9023913754849137 0.4653197116872522 0.8343588953725288 0.5323583455178069
          0.9698861643934974 0.3651689258556947 0.7336718735725285 0.1820194265070771 0.8445718472607531 0.5474646979253884
          0.2322075641283595 0.6912306474614923 0.8500062721624883 0.3733605501034879 0.8263226430419690 0.2747654402923556
          0.9545209373912912 0.3296699434195455 0.7826851725864679 0.7138541423414184 0.2315888864270006 0.0733460418932701
          0.1756356942547472 0.7624657826895492 0.6818425011422762 0.0685766740745661 0.7342322955000906 0.6448893456865609
          0.8631534634780776 0.7044589671187292 0.1781400733194514 0.0021679325560567 0.8190454280205346 0.4312619102920555
          0.6394935088553390 0.7967423203529798 0.8190204888041620 0.9416594404382338 0.6201042942384526 0.1738725942406216
          0.7738118042832002 0.6071287017273929 0.0870481666389564 0.7432012102454443 0.9237631700338915 0.7810631857156576
          0.0349328970906532 0.2969893657396291 0.5616073704249127 0.3400407488638806 0.7444540735536782 0.9324778725138643
          0.8558043441061352 0.5802828505261981 0.1226883500492032 0.9548107291573014 0.2812101162883430 0.7594996646412645
          0.8706844004002662 0.6865157545384726 0.3921572523561300 0.9938555328427444 0.0277821928749561 0.6165672095462449
          0.8529127804327972 0.1296746105550149 0.5823831508340737 0.0787166148652411 0.5625656258546305 0.6709321102293893
          0.8795186102086254 0.3655529039279105 0.9861271470147479 0.6219021200220227 0.2456607546424717 0.1430283551634368
          0.7095634126775555 0.8844839331391212 0.2929268734988879 0.5292459357201055 0.7999125567263767 0.3938393298838327
          0.0779173567507878 0.1755080391241475 0.4096861261991742 0.4021716189532583 0.4547359500172682 0.0492860321797982
          0.7942792217892182 0.9002862103801966 0.3992702632827668 0.0660369934369037 0.8505320805710721 0.8081712350738882
          0.9203486378255146 0.9960764996320337 0.8474951833507133 0.4334195894064488 0.5617815174630071 0.5947670843027357
          0.4133033424162839 0.8937409566935907 0.2700343705927905 0.0948235338045266 0.6842625469207626 0.5014945494862222
          0.2522307775031744 0.7820925978870393 0.7714637260678685 0.7965744009105938 0.4735072325815897 0.9504240889829262
          0.6953276495115063 0.6434655937481862 0.1638404278327759 0.8647518323412186 0.0583797703190592 0.3915464972527239
          0.3712119287454854 0.4929505809076468 0.0908033574375213 0.0973487317478134 0.8487724289512398 0.1891653336774851
          0.1480491653681428 0.0953618731854768 0.3555016705334438 0.9074991999033221 0.7161993288634172 0.3651948520257585
          0.9709615761268796 0.4017999748172452 0.5701360573657055 0.4068154931013810 0.0484031197743122 0.4844193229072166
          0.4710094499422058 0.3118131639700438 0.2244074713954202 0.9392498489870604 0.4892734819918452 0.7702790880203438
          0.7228332355607522 0.4394290044770514 0.7848248769559599 0.1906259739733832 0.8728946738758022 0.6303244269855898
          0.6103126904509159 0.6027648125308889 0.4641812232729813 0.4403145195040455 0.8915631059756819 0.9526817513880453
          0.6744914201574055 0.1933940190335023 0.1808251253351189 0.5283378041687650 0.4796635589665347 0.1510116986842137
          0.6360216972908064 0.6241470345978163 0.3565309617228253 0.5893020447300374 0.3840173609318766 0.6046909059430293
          0.4824057390598910 0.6779790676660375 0.9253840005020626 0.4960604558816885 0.5976548249124793 0.2055736952576752
          0.3329173755296078 0.0788826243266596 0.1969118682348738 0.7786923539674371 0.6885004557608914 0.6680337510995742
          0.2217579246210193 0.7334088874081516 0.9074190705781047 0.3530356607587529 0.8963881567353671 0.4621180752233742
          0.5325122569157911 0.4125610329721848 0.1595399443964456 0.6700354874025585 0.8054193713734185 0.2011166964329153
          0.5341230254797968 0.1685572677743209 0.7890010701974242 0.7689367620100560 0.3836599344519114 0.7070988002860098
          0.6529215314806520 0.9697646099233084 0.0461643915022734 0.0746979468346618 0.0291917114032341 0.5078048489838317
          0.4734716119627428 0.6043209512926937 0.1995001161174197 0.3912745540103789 0.9285353752916242 0.2181704448454297
          0.0509446212487087 0.8544877645444079 0.2722579598956419 0.5014544723702276 0.1649853427749705 0.7326422727918571
          0.4115554398937067 0.8238914642374333
        </DataArray>
        <DataArray Name="force" NumberOfComponents="3" type="Float64" format="ascii" RangeMin="0.08989571965436483" RangeMax="19.99995156969667">
          4.4159952501842419 5.7044459103963030 3.6248174436225833 8.3029001912778533 0.8295609805150095 19.6498076303768769
          0.8090910135268747 13.3351992329582565 6.0142527138801594 1.2913298725336708 16.9433328108949439 6.9527768870344486
          16.6062486225934371 6.5278562261406563 18.6437307603822973 2.4437352892555508 1.6633451479828087 5.0543148363648749
          9.1827220272964478 7.9711737536140497 9.7287403759623814 7.9472447618033097 18.2124598095210324 0.2712325558303985
          15.4243745611333374 12.6092302709149440 12.7897085109120070 7.0360032652677624 11.2163020765023163 7.7826664170381505
          10.5631716524512456 5.9890202260424719 4.5375412927943914 17.3765324761486077 19.8658803444960910 10.7313501066834007
          11.0212143492149686 12.7877553895743983 15.5187648297037857 17.1139444884991399 2.0083525275737801 10.9483692540070621
          5.2810615385375819 3.1692574401544960 9.5090166162170409 10.0699554144312771 8.0364559605819768 14.5561738363533628
          5.7840378880136640 18.5236256660212604 6.5030598638702468 6.3851851992498609 1.6287460519381658 4.4717686096926546
          15.0545771630654137 6.8386565157022972 11.6712947573691483 1.7954789215334332 11.3610291920336479 12.1633562481618558
          14.3868544516039609 5.5469904612942678 10.1764682257492218 4.2062784379495666 9.8472987098435443 6.5081456477633974
          7.4281688671445822 11.5326715682046466 5.7604790305228759 15.2800472900963396 19.5966133090431320 5.1169931585760331
          19.3999423359240311 13.2186786967945267 12.8108070135861052 0.8714390765850122 15.5570153800528637 9.4854566158968758
          2.5057198424264771 4.3128105388990718 16.2987506340143575 14.0485458084109833 3.6240907757679142 11.2773677822058804
          17.1091922653270174 9.1739157668355524 7.7830847122862306 13.8428105810458355 2.4630192051015332 2.2918640291043646
          16.0681706126166297 12.2285327784391242 16.6168484304774005 16.9312869403050712 10.7592006794096804 11.9354897129193009
          0.0898957196543648 14.1038425802355771 1.9994414677853878 12.6403341370474251 10.1181501547852655 9.6123474307867891
          12.5349021388209145 17.0762757446535751 17.0604680518673355 6.4403012333117644 0.7218191027138254 19.8424926707678466
          10.8949884049943453 16.7769814864229545 10.1636851725126149 14.6312884692884388 2.1915397055131547 13.7909856440985283
          6.6415449254709085 12.6263845007989133 3.7583125407042917 15.7002137311026644 12.0348246464244664 10.0063093469771598
          19.5342445647463130 1.6077242259955171 14.4962551788949980 8.6365787355232460 12.5587408731347967 18.2171804671734812
          10.5601061616835050 8.7066613741772549 2.8041427559394982 0.9034794453471418 6.8499641433146525 8.5570735485176890
          3.9462233525976909 14.4290155481228055 18.1127952087482917 16.1129321103912062 12.0876097241622649 15.9155230205171332
          2.2800675134549753 17.3872009069308255 17.4320987519383479 10.9520103139743696 13.9217559352804621 11.7157179274388028
          17.0108392617277850 5.5069132530173963 11.0316683820758037 8.5242196785468209 14.7108863461344992 7.9367160003113639
          2.5373291216834426 18.5699968724382352 18.7472564404309594 15.8150602677235241 1.8526282638805269 7.4261324078665432
          4.8479040771558228 14.6795463984304426 14.4314198961832307 12.7759214309813522 8.2659201559469331 8.6089220840936811
          7.1936795712587687 16.4972888522456564 5.8187779537498141 1.0898283350925486 16.6776779519709528 18.2548161466438437
          4.1408167698632976 16.7612720853672883 9.3096018462743331 11.1588201465055015 19.8723034400374523 7.5350446466314462
          7.2797315907948867 3.8587008551056123 19.3722038787231412 11.9169969759777832 18.4906639897317788 13.0809184386617066
          11.3240571241466945 10.5205183942779108 1.3503126307202518 0.6498710409393360 5.7071139190436977 17.2417478143284200
          11.7372114943875445 2.9039476242257822 17.8901526005310885 1.5228270390221321 10.5077989495112654 14.7681662370549223
          3.0805314164994613 13.9162237834675029 11.1039566147739883 2.2223450043380355 14.0083569381191744 7.4760347332118826
          3.9163546040071595 5.9223121743160334 2.8448473677558761 1.1275347769174315 17.8194024123323196 15.9979419922558836
          8.8400718506781306 1.7571524763579394 1.3222698463214488 1.8859943994198392 18.0479607317055262 4.0136599035847347
          17.6689869182744488 14.9454952228947100 6.4845040339300670 11.3538652378852252 9.3183807303286148 13.3161284044669603
          16.4405493774112443 1.2060289262009283 11.7383653449104148 19.9999515696966697 3.1954599585716892 19.3728167926258763
          1.3388558572885345 12.4920833566481004 7.5764085217227972 1.4473953758244984 7.3877211416761979 4.7390851614533407
          5.6554906095292541 6.2046008529980856 14.1894935062558236 11.5590909786101506 17.9741226218441241 7.4409902514355046
          3.9203868742057013 11.5072956880947412 7.3858981602537455 5.2448956554303887 17.6781465401846773 19.8017449891093626
          5.7170036708636900 4.0564433282384238 8.9166028889628297 3.3719621357509055 18.5497700144786499 0.7160224021959483
          3.3565598138404784 8.2335920230227710 7.1953344522303953 8.2773126328235129 14.0194449331977449 17.0369396998245364
          12.6451572616319794 5.1027877170226832 19.6899540868201974 15.9419141962608570 3.6917821762290370 15.5490865025465368
          8.5975763117403154 5.4884069642978028 4.0367060277980009 19.5935767109987253 14.3288255515582037 15.7746888839656680
          18.3284519899941785 2.9370191888116493 13.9116832768932284 9.4883014599442621 17.4185603639367628 6.4984210483270939
          15.8977777345153974 12.3568308511152338 17.4416851773453310 19.7182830771031021 4.4851039096867984 15.6483597294618200
          15.9778025456679718 6.4819343688037474 3.1727852511496901 4.0746802312476742 15.0754239633805280 6.8312457665653259
          1.5840088863755808 3.2770444322026027 7.3983291235714272 6.6916646872454137 16.1543843686284525 17.1326905274366723
          3.5310135134504650 6.0328392093917760 8.1802730125976595 9.2945291002999024 17.3976114997648281 13.8872804123175175
                  </DataArray>
        <DataArray Name="stress" NumberOfComponents="9" type="Float64" format="ascii" RangeMin="0.10366250291882206" RangeMax="999.6679860735902">
          333.5440381991191430 194.9977003377188964 947.7425853791960435 268.0269660523924244 895.8050849314315656 257.2740421075787367
          874.9011847370660462 574.1106327060497279 648.0275470699264133 987.0040753735426051 534.3636313115445091 652.7438539988846742
          258.9842232086176068 986.8559257781282668 320.1650082336624337 343.7451608087470731 970.5789600851954901 521.4607896386577295
          855.3566246663248194 38.5766333076634780 871.2949103969036742 776.2666896146267845 399.2365779698423580 596.0458187413986479
          881.0321449641476192 998.1396711245520237 20.3410911750117052 321.7921218309842857 375.5156968172613574 694.4550995293362803
          849.5757505966470262 23.0225989209017499 962.2741543148886194 469.7813782385532591 394.3218441019940883 497.3734603405950452
          204.0796189737606880 974.3862833777777723 301.8730404805084504 334.7626462267201646 566.1049474081637527 227.1128214903790479
          845.0100209613677862 279.4477721995144179 276.3548697561876111 825.9558430319929130 58.8306011830422833 316.1107744286019283
          233.9753111456030013 363.9578710948568983 833.7611534259884820 103.3439094097168294 742.0239451730118390 911.2319765294071203
          694.1087275244683497 567.5458457570573501 127.3634266512158035 121.5008906137492488 234.8527131907038950 41.2897476936234824
          326.4917684313987252 787.3181299913563862 338.3046212098347496 689.6954912049546920 921.2838624290694725 51.8719143139717573
          236.2325645654992456 966.7957283633384122 442.2673851408793553 596.5755910740940635 514.6783358821165848 97.1010676821754117
          226.9411639558942397 237.4066158457520714 156.0665845437056021 717.8491811529240749 792.8912201507956752 796.1829616588053113
          577.3849494459017251 878.8763443415606389 752.0331565878087758 996.5080178610329540 174.0200183499448485 385.3354431604643082
          637.4601484392172779 231.7377271168592472 63.8727198387070132 447.5642736954360430 140.6909942925746009 133.7566077675679139
          361.7858926185337509 421.9678497370649097 251.7200625858525598 844.2317867595394318 272.8088068011995801 275.7683570717265411
          801.2792016592119353 861.8955600619921142 405.1255376308343443 235.0158720670835066 916.2326675754113694 348.5316114159816721
          91.2334313544769202 812.7420182822885408 420.0041529970118859 446.2572139185976425 848.9259623672597854 144.9081407030332684
          945.9444426692249408 843.9118299872139914 719.9330503605567628 295.8409402989682349 947.8403525499663829 605.2807614317890739
          810.5572662556593286 845.0262641032211377 893.6567962151242455 776.0486650504682302 154.8439114361531779 920.8762252395050609
          497.6774422649430107 394.3205330269141768 143.0556395722912839 118.0375155290506228 299.1741232427738169 954.1648969982971948
          426.7527106323539670 468.9662697442238368 61.8810250850072592 177.4426475824448914 417.7536019173959403 835.6093144276608200
          903.5151521881537064 28.2700819821919396 937.0864377235810707 889.2110057887219909 325.5388163613792472 233.9005792324151400
          128.4003911688800201 355.9907771047544429 869.0831152576905652 190.9453636774585163 478.4008437038650641 869.6761029292101739
          338.7719680746828885 973.0756097912585574 142.1959918589296024 883.6164239835575245 416.7845901713674834 418.6444364437440413
          721.9456674559412477 652.3826019596679089 855.0940790707459200 296.1396913830787412 61.6688772713547309 449.2729155340123839
          307.9209318079877562 686.7827872460641174 303.2108435321034676 668.3080415391054885 195.7442071921019533 992.7019389906847664
          151.8478920218283577 450.0112193871297563 868.1258241667333095 459.3126600330010660 49.7308135731900904 363.5851099021093660
          439.3157457620669106 876.3344838129359005 492.6164996137686103 808.3970274474179405 162.6506807734560027 21.0980443649413374
          791.2491748990403266 875.2172191579714990 172.5380908274694036 892.8289589541144551 414.8643879323445844 492.9976165233652523
          61.1216649766602700 467.3526186808000489 393.8757525209136929 199.9143030018462071 605.7592201873080739 681.9888438404930184
          826.0777109822523698 397.9838739240565246 664.8000798850372348 267.7704575205215178 427.4781517224977279 17.5563435273375923
          307.3848948809175567 567.4057415289815935 868.9085565066229719 17.5898566972829684 939.1841862796504756 477.6086866854155346
          681.6342530159445232 676.0313583379538613 472.4276693353363044 359.2823031722426208 405.5786393383227164 925.9705218008165275
          627.8260935376041516 892.4962737131063477 770.4088316847784199 796.2314065301509345 336.4350169498442256 348.2689670268466102
          755.5057629682066818 379.1415765502808881 910.1096599726374734 924.2998250273521990 337.4172942002064133 963.5724662480746474
          944.3486089272133768 292.0253367394714132 836.5272260412118612 537.1120741680285846 319.7867213950723340 796.2099631406911158
          260.7454142697357611 436.5829751651537549 7.3915801915783730 420.0361569979975798 918.1229663992011183 370.3187836070603680
          856.4211781634070348 133.6676164407604119 306.5293190977731683 413.1071855120207488 877.1096328690219934 913.5308821487549267
          442.7947820398363774 19.1498900373748846 622.4528031262641434 435.8751164427267213 665.0713259109527371 888.7822547585049051
          224.4456761720909981 92.4740374090694530 788.6581888886685192 130.2887945552353415 840.0103696354153726 98.5379192791760943
          725.8880322020231688 276.6621364943268873 869.9154616218719411 117.5858361955517353 953.2408436560599512 113.8272277316864063
          501.2200830364268427 914.8053809130159379 26.4530552626265347 328.4896997519620641 841.6716154020004979 711.0298115260906116
          811.6343277804338641 913.2785405900945079 244.6122505115054935 821.6386536974196133 601.5567208055732635 677.1511624901770574
          562.7507573707245001 190.6027656257287504 432.5740001843093410 3.8566379256732564 297.2881036598651576 299.3584678691608474
          12.7854633456868640 860.3100362580088358 7.0245183789362509 893.1080563786458697 795.3917328654979428 437.9575359182735497
          112.0393721188404044 386.3772660649564727 669.3466241563205585 132.1805603526139521 81.1396005911249034 970.4651975137893487
          424.3198693952845701 215.2597079882993967 676.4879504500748908 408.6621257267546525 519.0949150050166736 859.6680383013230085
          788.5773751647154768 39.3219813544007906 772.3185915067994074 59.7632938239131022 74.2242768645633362 844.2784342165650742
          907.3457341882636911 856.7985233424653870 223.7327573348617591 709.5762851602412411 137.5029614124755426 982.1643089275593184
          312.2748220496821432 311.1232989510327229 100.6970325121393444 190.9844509113406446 898.2435448399792222 23.0523948293144265
          18.4241566771651257 997.5671089022571323 413.6293805792618059 806.5033291377574187 319.7565546600133075 959.9583969562344237
          586.9949548011657043 483.9197448621154081 290.1043336301100339 859.1116710069504734 873.7617908442216503 715.7591642128924150
          463.4857086805586164 665.8861853799576238 141.4433039673606061 436.6827516424397686 860.4094209490859839 528.6371503773895029
          310.2085874675406671 316.5256090084644711 947.9811341157865172 761.7571335319912578 760.4179842264937861 986.1663040589589855
          111.2091228443440372 312.6222444391701742 92.8933821814716936 733.3894916810089626 658.0551994203339063 727.3434993380272999
          17.1823279256909665 523.7987417163309374 123.8167815996116303 299.3034287728278855 984.2495333218350879 56.1731640800671173
          726.3702092370139098 435.5500009339235703 640.3787375652422043 834.6547396367676583 708.5022491841235706 790.4972057301114319
          622.8443118382189141 324.2188142201255232 561.5559570451146101 448.7016204096518663 985.1966894421884717 17.3126198728416050
          356.9008122173619313 716.7517746663709204 217.0924848776263332 827.3642650072814604 44.6740986613225459 944.5049015094000424
          272.7517720833724297 100.0467244372253930 138.8800907415140955 157.0159218674084229 378.8261129423495959 400.2649309511016327
          452.7791358041516219 722.4502767865742499 958.1584503069107086 642.6681936731963560 999.6679860735902139 541.0730298376798828
          902.2431916232943649 775.2198659684927406 804.3473800570563981 720.3313712575430827 317.5875711570980116 830.2682569473167860
          631.2083010591480843 526.3211249837884225 750.7598904578085239 67.8487431018315306 835.2388245260397071 539.3164025701089486
          580.7839671153498102 284.9612125244340746 768.1463909824167331 795.4679797393297349 769.9984485456292305 986.6683439502844521
          52.9476852174904948 632.4033669787655754 787.4703934693915244 532.3816421586121805 138.2655542954965711 59.8076731190223541
          766.8634045165300677 43.8062780500879683 736.1088454201549212 925.1680335192617122 590.5571125060251916 22.9694491174903277
          158.2471010382081715 204.3443043018624508 619.8395189250018120 990.7212206255072715 130.1632334215104834 828.8375761248997833
          94.7327208979799025 504.3681864565382398 781.4856863515816485 258.2804946755736637 288.3803642385680632 644.9518832534797639
          5.3065012765267650 306.1616299279675673 607.1149665962110475 801.9889897708258104 898.3624403367101650 883.5142703052434854
          996.3730500635921317 505.4753784056229620 550.5747372184666801 77.7749398199033521 5.7645383059459210 274.9988195677674980
          195.7070288835752763 782.7087020138151274 589.7999793406494291 585.3300473475070476 897.9911822582135983 860.7861992927503252
          134.2192234270566189 648.8718925073862920 705.1031141875391768 209.4806206319058788 804.5114345912226099 471.5554150413640855
          810.0279488586437537 841.0625936157300657 462.8901054574958494 411.0143156220605647 122.1976039582052209 323.7713349849120732
          995.3627321543337985 413.7767138313042210 655.7180559181731496 864.7666940305932712 710.1797006511613972 268.4753571702541421
          21.7315630549659318 893.3808559062678114 211.4513710959531352 67.9052272952181966 549.2601217177935951 178.6389071621765652
          840.4512330008556091 531.8062976957501178 695.0785757897132271 952.3154074952309429 602.7607766433491179 957.1415443081025387
          416.0978536288425289 10.0511235455870143 150.9810854113701168 996.7489366554929120 107.8600532639122349 270.9960975370036067
          970.7007000424341641 287.6335584560607685 137.5796501721564482 39.5996351287474226 768.6034079790233591 28.5451741386372184
          280.5576159899104596 0.1036625029188221 291.1758642408200899 69.7150371447140600 731.3754411138744445 978.5941627123246462
          575.1679787770173107 52.4859675547214550 800.4447828859230185 594.3286702898624299 719.2218840536908147 984.3427649050499895
          363.7438809814775595 461.3772498586596953 868.5976133034348550 166.7102771349059367 547.0769931100727490 218.6126877160062918
          522.5963937027960355 473.0927695324864430 199.0808099906032851 984.6534214860879501 997.9954600231124004 112.4196327027113824
          727.4251318181161423 683.1106539022871402 570.3501632300192341 157.8152354237371071 557.5209753804415413 166.1377721950269120
          561.2130493775511013 869.6426622869596486 477.0879008170555267 855.0664589482728388 282.2674515665807462 267.5174893204135174
          582.8951310174650189 45.0607224058259277 415.9855660132228081 283.9446737831853511 613.1683727630377234 606.4827853665751718
          878.3549530769462308 436.5048412758808354 750.9452402581251818 721.6660314805541248 480.3250565558931839 747.0554212009564026
          971.4204140270727521 609.0194524529358659 532.5669440945564475 759.8562688178250255 989.3047792439613204 166.7018930651583730
          687.7923410248101845 688.0002357168298204 766.2203417223047381 755.0314847268330141 118.0617606971626827 767.8197403446635008
          469.9213049601125363 132.6429597935045024 647.9659903152379457 156.5839913480123755 781.7027437485294286 120.2902685811714178
          382.5033773150196907 299.8550418259206936 810.2065003235452423 711.6546952037615483 997.0200745901727259 270.5762883252994584
          86.4604885606481446 889.5151784489374904 283.0208920818020601 127.4811534070655625 868.9517987654680837 302.8766600132472036
          240.1783922189586349 170.0035491980889049 732.8133622474059621 904.9655083233618598 624.5749555353149844 365.0748556998307777
          698.9618691417806531 719.3471058257636059 387.3318695757214982 91.5722934761839014 702.7932147597185804 281.9181722216432604
          465.5955967793656782 122.8847749146150221 478.4644698298203593 86.6905238139167267 339.5052728365057533 542.8414852109513049
          492.0648747924249733 564.3789232784173464 245.8002430284861362 556.8699360838933217 527.8713137542943059 214.7938715658984563
          282.8855410197759284 996.6512693243857939 386.8257006926176587 415.2310655029534132 730.3203911123619037 689.3325161003183439
          817.1560135432625884 829.1160432528560023 219.7045239066891611 603.0081639153704600 302.6082620327044310 813.0800147150988550
          547.8178965284070046 462.3403338892405827 672.5887742056605703 428.0220282029308692 601.2007409003925886 357.0744484511241126
          947.0835967416319363 232.0068076791441740 933.3262029351665205 979.9876721528491998 229.0260383669944133 582.3800230096715040
          151.2126851659000408 399.6649433488601630 223.9141147364082087 104.1266536269888121 598.9536238673571233 406.8017092300468676
          413.6866974697893511 987.6745219019619526 646.6069183032631145 352.1544185680591568 975.0067925101742503 623.7918454843809286
          275.7251674424926478 962.1322887985976422 164.7106267430188495 631.8086489823250531 206.5869129833834847 849.9649628989171788
          3.4904842075158538 604.5672539153041498 303.6083245317835235 521.1136182102293333 252.5856579087291038 786.7392318638613915
          801.3087533840753167 732.6262333367036490 397.0322019380490133 271.9025101450088755 229.2546549588011544 906.3743542497675207
          927.0498676927658153 753.0068447226365151 190.2164210339994952 978.2161353870376388 960.2992235941603667 515.5139366270668688
          619.1089134285085720 446.2674298049374784 909.2819694462651796 627.3891047801143941 977.6999032196159760 725.2358354073567170
          594.9576383211607435 844.3101233673979777 181.6792669422354720 487.7580663888606409 365.5896434537920641 625.4743822821669710
          622.2421023347500295 214.9966762644510823 918.8204933990248264 203.7841938067504941 302.9632420664162282 902.3252523303797261
          497.8610871970551557 508.4878353174616450 194.4265179835711308 621.2208077663148060 23.9212095873831956 934.0395612367910871
          528.0144032897105717 603.9326781041056620 696.5328242430658747 597.4904099697973834 286.2834498723661909 266.6507919568915668
          225.8902621552047947 135.7266995916279768 299.1374683799475065 283.2867027706528233 219.4913634722211953 688.8992843019791508
          928.3849002084871245 5.3378943612825136 760.1837165633909308 420.4357904538398429 703.7189516133793177 646.0549553285447928
          326.0513668103573082 982.1578708419619943 415.8938235514814323 223.3301566308193458 830.0785787616927109 855.7377506453002525
          108.9051919801041777 574.0003431795859115 877.3279480618163007 322.7797933163184325 63.2219841289184430 640.3487301899433533
          830.6912724140269120 200.1593988337686483 661.8296419706747429 601.3674611242522587 81.7284853570781138 229.7075902520946329
          623.5254059070302901 941.1083665065701780 747.8395215962632392 481.3866224225946553 205.6595092097844883 10.6962350321966326
          153.3172280342186582 152.6124226798909547 567.9229311665142177 334.7804866786323714 386.9521599784131354 214.0195480678691524
          95.4928262764294118 676.3091860617097382 435.3552470425304932 320.2987306700168801 884.7355111040017164 551.0770349209217329
          859.3705631047971565 657.0071041865508050 726.8040113019892488 138.9256334739197314 589.2759115035282775 802.2094014238494992
          574.9013994867547126 836.1410287863545818 30.0294844593134158 551.4600361291024910 677.3255557434247294 644.1770064433002290
          805.2661553684939690 917.5870352692406868 571.9722850598381001 710.9755769910151457 193.9077905259168801 768.0683929644201271
          961.7926540155406201 717.3000910922140747 510.5705138586250769 974.9358841886071332 749.5696616267653098 23.2739786944035068
          860.8455350442558256 373.1332924597398346 686.4190149079995535 315.3323022918703487 250.1369409096618881 26.3829355306162157
          693.2138779384260943 119.9277819111946854 224.9612043645141739 320.5438929038248830 196.1857375447377763 505.0874314597639909
          375.6143769054331756 903.5546312422515030 654.6558954333754627 480.2362081292599214 708.3793326379345672 125.1931918053352746
          419.2588084556201125 157.4497148624177782 692.3174987552821449 428.9617958099961470 486.0738746326057367 917.3976711688777641
          131.1821408994091485 319.0138571628550039 209.3591224905795229 46.1361615424276152 765.4249668415355927 942.0149154482018048
          91.9130504091501024 383.9095525485222993 302.3033929414942236 169.0067651296074303 821.6065470070578840 761.0432838457564912
          372.8219254027965803 693.0994137586387751 808.4992633485962870 93.3988784463725068 390.6845178547967521 244.5090181243345739
          862.6231042255798229 426.5838594320911170 389.4226710354707848 190.9845861094754298 612.9463871721425221 642.9261317659963879
          192.9116263256491663 915.4934005745227523 996.4577020933868425 108.3637858070999300 769.8721273246603687 492.4722383223571001
          745.2781405361489533 42.5412323786461570 769.9878165610829228 914.2832698882662044 25.6291637336777391 461.1730948114393982
          575.2094552904983402 466.4055743101832832 546.2951819408349365 304.2227004806991886 222.6479118386583878 400.7123461124334654
          427.4977497111185585 529.5973426161282305 62.2626293760740737 151.5304309755709369 249.7645191401229852 297.0644687273059503
          579.9784586069064289 795.0002013793668993 212.9700720217251444 645.4659776669808480 284.0356411697504200 88.5781408029862121
          225.2236682605068836 434.7361286899567858 692.1314436318756407 540.4130211108811181 690.5399332904001994 188.6841261652448907
          845.2102683681432609 17.1017465487433000 224.1726486781778647 621.4152541980436126 687.3717423939601758 851.9813398996109299
          986.3197360820605581 1.1291617162361156 328.4481365819884786 679.1412436183677528 884.1862017202053039 43.1963232152593477
          505.7829417278437631 689.4523865747650007 420.1805203212389870 623.8211700160160262 319.6498655598819596 1.0573583731082747
          790.3252354775144113 833.3806125798274707 775.2446645974587227 779.4896277626678511 415.9489566663805249 129.1238864993405855
          648.6714196083772777 792.8725875423428988 923.8304059897685647 594.8771246540534321 131.7827608538557627 992.9127171722966523
          404.4002463945573140 867.0383807362650259 11.8660991127775830 63.7888061615667894 506.0269583145367278 328.0480825581237809
          459.5143094498818073 584.8652001529974314 429.6313161718883293 581.1414903684532192 645.7198614318527916 612.8986369841486521
          967.2425347582536688 233.0012108757811973 385.4717588115876765 927.7866163531355141 208.8067624562809499 223.0752853969397620
          555.4186984630104007 142.9362509679429252 827.2298752440830185 739.3264917349043799 373.6090800647022547 251.8739125228801754
          362.9481988679145275 50.2102506668854502 682.5166983139989725 748.5527008248916445 355.7347362059263105 674.2055386605577496
                  </DataArray>
        <DataArray Name="normals" NumberOfComponents="3" type="Float64" format="ascii" RangeMin="0.000758028814421162" RangeMax="0.9921930535011252">
          0.6383640096744319 0.5900430427731929 0.4943082022658881 0.6284477930460626 0.4771269635560165 0.6143315326949684
          0.8191007328665010 0.0746219322698848 0.5687754887843445 0.5621515090639394 0.5422399766392499 0.6244689652748174
          0.1931259449280082 0.6938180841267407 0.6937714577109402 0.4658232992970804 0.3962246605094368 0.7912108898619661
          0.3435881215525606 0.6865159685383582 0.6408143472721430 0.4931337177251561 0.5564742058911877 0.6686969377979370
          0.4235819038729755 0.7345873577845572 0.5300563974658246 0.6554641563565407 0.0007580288144212 0.7552259033720472
          0.5502076014657168 0.8107939318080992 0.1997117809056502 0.5460362910074015 0.3294907605838246 0.7702468484796113
          0.7220999662227244 0.1454041116903195 0.6763351854551775 0.9615942249464919 0.2088487490134625 0.1780975760224364
          0.5018580126244794 0.6482164860915334 0.5726726135618437 0.2669820466733210 0.8467908371294259 0.4600715867207740
          0.8114287106253217 0.5760592424317053 0.0986873689077661 0.9779484541839568 0.1835064339348156 0.0997106296426632
          0.9379172495801559 0.2139570021924339 0.2730084873274500 0.6599938117572274 0.6663385173027958 0.3469886868485443
          0.1148291507038177 0.4288846624717550 0.8960313680028891 0.7697785140288487 0.4761551923078071 0.4251085416430175
          0.7323782180301414 0.6478092662507902 0.2096790411905953 0.3261047563371297 0.6343119165802248 0.7009308670465463
          0.5991955350316138 0.3274961946672422 0.7305552362940493 0.2616251955968061 0.6417478265263457 0.7209105243909567
          0.5580799160249376 0.4867218134756193 0.6720481259676296 0.1915780385082535 0.3398736921882823 0.9207517192596683
          0.3154473569452955 0.0145518708347321 0.9488314961316560 0.4106307685115483 0.8730018104775707 0.2631543479680677
          0.0457037739423541 0.1160349500432501 0.9921930535011252 0.2552836892592178 0.6213448311447630 0.7407839353063003
          0.4698569368535901 0.7603325322813966 0.4484739671877517 0.6822656778936756 0.5807285096778553 0.4441485593983397
          0.6275154810527567 0.5046613227474817 0.5929091586085424 0.1446417193565402 0.6984559345337791 0.7008837853283016
          0.7403303812387767 0.5553461443211334 0.3788160326629517 0.2357421673355650 0.9015413685927126 0.3628343854376390
          0.0393501718756969 0.2280020786107185 0.9728651582426749 0.5195692985241205 0.1703260257022978 0.8372793972143431
          0.3483092667304915 0.5878598401819278 0.7301379753244900 0.6692723945818453 0.5606314931220244 0.4876133619687346
          0.5032800648450434 0.6551695670010060 0.5634376760612333 0.2748921044269652 0.1752605088438682 0.9453666404964283
          0.4979542055896607 0.8422637837006537 0.2064783954844387 0.0290743454409725 0.8955705214403193 0.4439686065075927
          0.7255927985898741 0.6877225524517432 0.0235113054459717 0.1848249943621432 0.8943301729835955 0.4074472519850463
          0.4012655685621970 0.8280259030264483 0.3916108366780620 0.2241862390117958 0.3865734694335782 0.8945957092272645
          0.9208110724936199 0.1631629174771137 0.3542383817904352 0.8472157978334300 0.5253387177740294 0.0790229302734547
          0.1561720945248432 0.7895810391547519 0.5934408643656296 0.9246453041019986 0.0427973503846568 0.3784170297465158
          0.4016049946440240 0.7471797510492119 0.5295619396246404 0.3468095896606106 0.7635153482275672 0.5447636382325604
          0.9433371520113006 0.0122725680237312 0.3316088082504916 0.9268448684111662 0.1099368502258573 0.3589881319240310
          0.0336558602573356 0.8140585945251799 0.5798067675959184 0.6238097871734550 0.7145718267134492 0.3166203624121685
          0.3557026354070753 0.4986652241574708 0.7904483723687721 0.2879558655406431 0.3219486879523504 0.9019037985431148
          0.7622912235986582 0.2979794663830408 0.5745609872228871 0.4813223210716507 0.5635280111758377 0.6713903513295404
          0.7057135252808234 0.0870273251360043 0.7031320394601464 0.4039392612854194 0.5132228675706064 0.7572551494673333
          0.2142478789231190 0.8019918124704607 0.5575903326881571 0.6440459182408502 0.4112848606085718 0.6450190839281329
          0.5306364090112156 0.6175981627968772 0.5805148669427889 0.2326651613768190 0.5403250908633255 0.8086505542352876
          0.7488257021368856 0.4348094328548192 0.5002007846052131 0.1544265019796696 0.6797621310943823 0.7169908650857046
          0.1616157418452183 0.7753163643430433 0.6105447462469110 0.4094193825954862 0.8878441319069394 0.2100203956608598
          0.0086296306505011 0.8840748647213256 0.4672656236476270 0.2305797331792079 0.6942880113253892 0.6817603273708741
          0.0920998714382013 0.7946405366097150 0.6000533570089337 0.8084750176947879 0.2657918770103346 0.5250931573337588
          0.0189689864005566 0.2410359535363402 0.9703307923887415 0.4722604788097969 0.7275995829596413 0.4975629478079102
          0.5188141455746778 0.6064248163447549 0.6025618843511822 0.4583733199270186 0.6183287951418528 0.6384069240519777
          0.4821371780218824 0.6487218504829824 0.5888155078418289 0.4780115796678843 0.5463215883921990 0.6877773271634059
          0.6299394715162367 0.2190184625494971 0.7451222552630535 0.6208462401374996 0.6627166071256161 0.4187560683107075
          0.3652400959506155 0.4049555564653422 0.8382187480591389 0.7086951206581906 0.6699735040356452 0.2211034369824950
          0.5936333017464390 0.7367976944148754 0.3236180782381370 0.3293658836188962 0.5064467243165653 0.7968875893982567
          0.7231952738267795 0.2114971179736413 0.6574629761465303 0.0414317807250454 0.3297632045214378 0.9431540894730320
          0.4180689869011174 0.8889040128603337 0.1872644603555865 0.7921056175602738 0.0432878037082503 0.6088471537911411
          0.2945041155142614 0.7160786639683219 0.6328496448245079 0.7075545927087787 0.6462333518353002 0.2859177387159237
          0.7355164163706371 0.6388417967035609 0.2256031028905887 0.4778854492340603 0.8782894848679470 0.0152668982035227
                  </DataArray>
      </PointData>
    <CellData Scalars="temp">
        <DataArray Name="temp" NumberOfComponents="1" type="Int64" format="ascii" RangeMin="0" RangeMax="474">
          0 1 2 3 4 5 6 7 8 9 10 11 12 13 14 15 16 17 18 19
          20 21 22 23 24 25 26 27 28 29 30 31 32 33 34 35 36 37 38 39
          40 41 42 43 44 45 46 47 48 49 50 51 52 53 54 55 56 57 58 59
          60 61 62 63 64 65 66 67 68 69 70 71 72 73 74 75 76 77 78 79
          80 81 82 83 84 85 86 87 88 89 90 91 92 93 94 95 96 97 98 99
          100 101 102 103 104 105 106 107 108 109 110 111 112 113 114 115 116 117 118 119
          120 121 122 123 124 125 126 127 128 129 130 131 132 133 134 135 136 137 138 139
          140 141 142 143 144 145 146 147 148 149 150 151 152 153 154 155 156 157 158 159
          160 161 162 163 164 165 166 167 168 169 170 171 172 173 174 175 176 177 178 179
          180 181 182 183 184 185 186 187 188 189 190 191 192 193 194 195 196 197 198 199
          200 201 202 203 204 205 206 207 208 209 210 211 212 213 214 215 216 217 218 219
          220 221 222 223 224 225 226 227 228 229 230 231 232 233 234 235 236 237 238 239
          240 241 242 243 244 245 246 247 248 249 250 251 252 253 254 255 256 257 258 259
          260 261 262 263 264 265 266 267 268 269 270 271 272 273 274 275 276 277 278 279
          280 281 282 283 284 285 286 287 288 289 290 291 292 293 294 295 296 297 298 299
          300 301 302 303 304 305 306 307 308 309 310 311 312 313 314 315 316 317 318 319
          320 321 322 323 324 325 326 327 328 329 330 331 332 333 334 335 336 337 338 339
          340 341 342 343 344 345 346 347 348 349 350 351 352 353 354 355 356 357 358 359
          360 361 362 363 364 365 366 367 368 369 370 371 372 373 374 375 376 377 378 379
          380 381 382 383 384 385 386 387 388 389 390 391 392 393 394 395 396 397 398 399
          400 401 402 403 404 405 406 407 408 409 410 411 412 413 414 415 416 417 418 419
          420 421 422 423 424 425 426 427 428 429 430 431 432 433 434 435 436 437 438 439
          440 441 442 443 444 445 446 447 448 449 450 451 452 453 454 455 456 457 458 459
          460 461 462 463 464 465 466 467 468 469 470 471 472 473 474
        </DataArray>
      </CellData>
    <Points>
        <DataArray Name="Points" NumberOfComponents="3" type="Float64" format="ascii" RangeMin="-1.2488711659751803" RangeMax="1.25">
          0.0000000000000000 0.2500000000000000 0.0000000000000000 0.0000000000000000 1.2500000000000000 0.0000000000000000
          0.0000000000000000 1.2500000000000000 1.0000000000000000 -0.1469463130731183 -0.2022542485937368 0.0000000000000000
          -0.7347315653655916 -1.0112712429686841 0.0000000000000000 -0.7347315653655916 -1.0112712429686841 1.0000000000000000
          0.0000000000000000 0.0000000000000000 0.0000000000000000 0.0000000000000000 0.0000000000000000 1.0000000000000000
          0.0000000000000000 0.7499999999993281 0.0000000000000000 0.0000000000000000 1.2500000000000000 0.4999999999986940
          0.0000000000000000 0.9166666666680549 0.6666666666680549 0.0000000000000000 0.5833333333349527 0.3333333333349527
          -0.4408389392185881 -0.6067627457801550 0.0000000000000000 -0.7347315653655916 -1.0112712429686841 0.4999999999986940
          -0.5388031479352915 -0.7415989115110899 0.6666666666675587 -0.3428747305046166 -0.4719265800529802 0.3333333333344798
          -0.1857862067808301 0.1672826511327180 0.0000000000000000 -0.2486304737683215 -0.0261321165185680 0.0000000000000000
          -0.4392185313523386 1.1702935878302909 0.0000000000000000 -0.8224234094421081 0.9413393307419055 0.0000000000000000
          -1.1007444168067038 0.5923358244010484 0.0000000000000000 -1.2386872028329181 0.1677915776729001 0.0000000000000000
          -1.2186598895613803 -0.2781511703628884 0.0000000000000000 -1.0432165663686395 -0.6886212280013054 0.0000000000000000
          -0.4392185313523386 1.1702935878302909 1.0000000000000000 -0.8224234094421081 0.9413393307419055 1.0000000000000000
          -1.1007444168067038 0.5923358244010484 1.0000000000000000 -1.2386872028329181 0.1677915776729001 1.0000000000000000
          -1.2186598895613803 -0.2781511703628884 1.0000000000000000 -1.0432165663686395 -0.6886212280013054 1.0000000000000000
          0.0000000000000000 0.9472789115652699 0.3027210884347655 -0.4348621110326235 0.1424129377997954 0.0000000000000000
          -0.3559891463694822 0.3555786748406804 0.0000000000000000 -0.5466291760812416 -0.0471580069904937 0.0000000000000000
          -0.7302035421375498 0.0923412305841402 0.0000000000000000 -0.7520464512966120 -0.1720755350687609 0.0000000000000000
          -0.6864219955012205 0.5472496859950652 0.0000000000000000 -0.9220596370510540 0.2957045577809445 0.0000000000000000
          -0.3821526063977286 0.7280545254541028 0.0000000000000000 -0.6131280096966144 0.2962599328226823 0.0000000000000000
          -0.9799344804623495 0.0395674769530398 0.0000000000000000 -0.7822349761399954 -0.5038008888826532 0.0000000000000000
          -0.4925051182126656 -0.2602080751072943 0.0000000000000000 -1.2488711659751803 -0.0531113057248007 0.3745551418323916
          -0.9791476683046494 0.7770262824728444 0.3745554925359025 -1.1888210923767293 0.3862698672174675 0.6250720580377924
          -1.1547410597423962 -0.4786158009771595 0.6317912669706014 -0.6529411650424042 1.0659117388381967 0.6318527797390481
          -1.2487413330054011 -0.0560810417511488 0.7348022185308963 -1.1494097148219420 -0.4912812915967205 0.2651977793123973
          -1.1888206467335218 0.3862712387689393 0.2651977786383438 -0.9772893552265871 0.7793622496379984 0.7348022206248092
          -0.6411240984806438 1.0730609909727320 0.2651977776091138 -0.3546600209565237 1.1986309980703478 0.3580948530005527
          -0.9915131544650235 -0.7611843827370728 0.3583012523268251 -0.9494688112268129 -0.8130245854262605 0.7230298810251234
          -0.2900713385000400 1.2158777153072571 0.7235324748577654 -0.3759996036877188 0.1267949498385718 0.1468030509936731
          -0.3545863217000412 0.7089342353732925 0.5426658877617226 -0.7345240612108384 -0.3412302370568718 0.5599158420351786
          -0.3974455455427500 -0.1053547644798456 0.1611722121816817 -0.5643699728246417 0.0705230286874938 0.3187591439276770
          -0.2572758339441050 0.3038341149157866 0.1481281503715783 -0.9405809730992846 0.3121485510165794 0.7410243613847982
          -0.4394908848852381 0.3044844534039015 0.2846615941526773 -0.6793492341617485 0.2951205439020606 0.4906831423687205
          -0.2652948139965265 0.5026131862762790 0.3183320801716591 -0.5720404821351543 -0.1926399519278860 0.3536062162372071
          -1.0203000231672270 -0.1063355720349668 0.7758261992925739 -0.7796803863464612 -0.0061576509508326 0.5297047014855042
          -0.6882438898777796 0.5453818942030614 0.6281349910341897 -0.9500346019039886 -0.4487232596044824 0.8006751679396167
          -0.5488042283970168 0.8723750480096676 0.7806426662506820 -0.4991723127664146 0.4818569086784978 0.4438004599838267
          -0.8431159176939700 0.6750308178066818 0.8300514134325749 -0.5577058628075267 -0.7676162665090559 0.3011741139602281
          -0.7308363986892261 0.6800905511549947 0.2974276931167534 -1.0346093030676689 0.0163776398143015 0.2125104607383853
          -0.6103250282891681 -0.4850758142439947 0.2736817290963720 -0.2726915945749592 0.4257313682936872 0.1097483051722492
          -0.1872820881764839 1.0719654704649839 0.7151548095168923 -0.2105052375571511 0.9029929121218446 0.2859449381054651
          -0.9045285755131330 0.7283420707722105 0.7892426399760151 -1.0692877885718246 -0.1883549816117848 0.6245902492468023
          -0.4875123942798595 -0.2811058705710273 0.1321823111417765 -0.4705328889878861 0.8343622243817009 0.2547636803514022
          -0.7998694493843744 -0.7187487804353937 0.6364321443319559 -0.9941890830890068 0.3072849065024332 0.2132926783096133
          -0.8792348952086065 -0.3152085323962128 0.2491787815492499 -0.9827195136746776 0.4760832146074659 0.6431608745725654
          -0.1404088928914550 0.6283728876270452 0.1581581706994415 -0.4609220704861915 -0.0328128565379739 0.0970725089509946
          -0.6435647314097246 0.9322461496026131 0.7339492301954329 -1.0389833624114648 0.1542165920468602 0.5457432548209324
          -0.7902168279551721 -0.6637103751716465 0.2894737175214597 -1.0012909268023293 -0.5203273998930272 0.7015379325722148
          -0.3953984598500006 0.2110034020058063 0.0869307443775455 -0.6446605697582395 -0.6597250945023792 0.1366979704496738
                  </DataArray>
      </Points>
    <Cells>
        <DataArray Name="connectivity" type="UInt32" format="ascii" RangeMin="0" RangeMax="97">
          0 8 8 1 1 9 9 2 2 10 10 11 11 0 3 12 12 4 4 13 13 5 5 14
          14 15 15 3 0 16 16 17 17 3 1 18 18 19 19 20 20 21 21 22 22 23 23 4
          2 24 24 25 25 26 26 27 27 28 28 29 29 5 8 11 0 8 1 30 1 9 30 10
          9 2 11 8 30 9 10 30 10 11 30 8 38 0 0 32 16 0 38 32 1 18 8 3
          42 12 17 42 3 12 41 4 4 41 23 18 38 8 12 42 41 16 31 17 16 32 31 31
          33 17 33 42 17 19 38 18 20 36 19 36 38 19 21 37 20 20 37 36 22 40 21 21
          40 37 23 41 22 35 40 22 22 41 35 32 39 31 31 34 33 31 39 34 32 38 36 36
          39 32 34 35 33 35 42 33 34 40 35 34 39 37 37 40 34 41 42 35 37 39 36 9
          53 1 1 53 18 2 56 9 24 56 2 4 54 13 23 54 4 13 55 5 5 55 29 9
          56 53 54 55 13 18 52 19 18 53 52 19 44 20 19 52 44 20 50 21 44 50 20 21
          43 22 21 50 43 22 49 23 43 49 22 49 54 23 25 47 24 47 56 24 26 51 25 25
          51 47 27 45 26 45 51 26 28 48 27 27 48 45 29 46 28 46 48 28 29 55 46 45
          48 43 43 50 45 43 48 46 46 49 43 45 50 44 44 51 45 47 51 44 44 52 47 46
          54 49 46 55 54 52 53 47 53 56 47 0 66 11 16 62 0 62 66 0 10 24 2 15
          60 3 3 60 17 29 14 5 11 58 10 10 72 24 58 72 10 11 66 58 14 59 15 29
          71 14 14 71 59 59 67 15 15 67 60 17 57 16 57 62 16 17 60 57 24 72 25 25
          74 26 72 74 25 26 63 27 26 74 63 27 68 28 63 68 27 28 71 29 68 71 28 60
          61 57 61 64 57 57 64 62 66 73 58 70 72 58 58 73 70 59 69 67 68 69 59 59
          71 68 60 67 61 61 65 64 61 69 65 67 69 61 64 66 62 65 69 63 63 70 65 63
          69 68 63 74 70 65 73 64 64 73 66 70 73 65 70 74 72 12 15 3 12 4 75 4
          13 75 14 13 5 15 12 75 13 14 75 14 15 75 34 65 69 61 65 37 34 69 65 34
          39 61 77 34 37 69 65 34 37 39 76 58 70 73 37 65 87 69 76 37 36 65 77 37
          87 69 65 36 76 73 65 37 36 39 36 85 76 73 87 44 65 76 76 70 65 73 76 58
          73 85 73 65 36 64 64 65 36 39 88 67 69 59 39 64 65 61 35 34 69 61 84 88
          78 67 88 43 69 77 36 85 73 38 77 34 69 35 77 34 35 40 77 34 40 37 37 36
          20 76 66 85 73 58 76 47 70 58 44 89 65 70 67 35 69 61 44 89 70 51 87 44
          76 20 35 77 40 22 88 78 67 59 84 88 67 35 45 43 93 48 89 50 44 65 15 59
          67 78 85 47 76 58 23 88 49 94 66 0 79 90 88 43 77 22 88 67 35 69 43 93
          77 50 36 85 38 19 31 39 34 61 84 67 78 15 88 78 59 94 18 81 85 38 39 36
          64 32 61 34 31 33 91 57 61 60 35 34 61 33 49 94 88 59 85 81 18 53 66 85
          58 81 47 56 58 53 44 89 51 45 61 67 35 33 89 70 51 82 81 66 38 90 70 47
          92 58 65 93 69 63 91 57 96 61 94 41 4 23 47 44 70 51 24 2 10 80 60 17
          3 84 86 29 5 14 77 37 40 21 36 85 19 76 9 81 80 53 59 86 94 14 91 57
          17 96 71 29 86 14 12 84 78 15 10 72 24 80 77 37 21 87 96 62 57 16 81 66
          90 11 94 59 14 78 56 92 47 58 84 88 35 41 20 36 19 76 23 88 94 41 85 47
          58 53 35 41 88 22 78 12 15 75 81 1 8 18 82 51 89 26 46 54 49 59 55 95
          54 46 74 92 70 82 33 61 67 91 66 85 81 38 8 11 81 90 38 90 0 8 3 84
          12 15 70 47 51 92 81 53 1 18 10 72 80 58 46 95 54 59 97 94 4 75 4 54
          13 94 12 41 4 97 83 27 93 48 15 14 59 78 77 40 22 21 27 89 45 26 71 86
          59 14 84 35 67 33 97 94 75 78 38 81 8 18 97 12 78 75 27 45 93 48 96 39
          64 32 84 35 33 42 91 33 17 84 91 57 60 17 9 81 30 10 13 94 86 14 51 45
          89 26 11 81 10 30 37 20 21 87 58 81 85 53 13 94 14 75 9 81 10 80 23 88
          41 22 81 90 38 8 83 95 46 59 27 83 28 48 86 5 13 14 9 10 2 80 82 25
          51 26 96 62 16 79 12 97 4 75 0 90 11 8 46 28 83 48 0 32 16 79 19 85
          38 18 74 92 82 25 29 28 95 46 96 31 16 17 83 95 28 46 25 51 47 92 84 33
          17 42 47 25 92 24 96 32 79 16 91 31 17 33 91 31 33 61 84 60 67 15 55 29
          95 46 24 92 47 56 84 17 3 42 88 83 59 69 88 83 69 43 49 83 43 46 93 50
          43 45 89 50 45 44 93 50 45 89 93 43 83 48 83 43 93 69 83 43 46 48 96 62
          64 57 79 32 64 38 36 38 64 32 96 39 32 31 96 39 31 61 96 62 79 64 96 32
          16 31 38 64 73 36 38 73 64 66 76 87 20 37 76 47 52 44 76 70 44 65 76 87
          37 65 76 19 44 52 20 76 19 44 77 88 22 35 77 93 43 69 77 88 35 69 43 77
          21 50 43 77 22 21 96 64 61 57 84 3 60 15 57 96 16 17 94 78 14 75 15 14
          78 75 79 32 38 0 0 79 16 62 96 39 61 64 79 62 0 66 96 32 64 79 24 2
          80 56 58 56 80 53 92 80 24 72 92 80 72 58 9 80 56 53 9 80 2 56 30 1
          8 81 81 66 11 58 30 9 1 81 8 81 11 30 89 74 70 82 89 74 82 26 74 92
          25 72 74 25 82 26 74 92 72 70 93 68 83 69 93 68 69 63 27 68 28 83 49 54
          23 94 54 94 4 23 67 33 91 84 85 47 53 52 85 76 52 19 76 47 44 70 85 47
          52 76 52 53 85 18 19 52 85 18 55 29 5 86 55 29 86 95 97 94 41 4 49 83
          46 59 13 54 55 86 55 5 13 86 84 35 42 41 12 42 41 84 3 42 12 84 83 71
          28 95 94 49 54 59 77 93 87 50 87 93 77 69 77 87 21 50 87 20 21 50 87 44
          20 50 87 44 50 65 88 83 43 49 88 78 94 41 23 88 22 49 88 43 22 49 88 83
          49 59 29 28 71 95 89 74 26 63 89 74 63 70 86 29 71 95 9 53 1 81 38 66
          79 90 95 86 59 71 0 66 11 90 91 61 67 60 60 91 17 84 91 96 17 31 91 96
          31 61 67 91 60 84 68 71 83 59 68 71 28 83 69 68 83 59 4 94 13 75 97 94
          78 41 70 92 72 58 92 80 58 56 92 82 25 51 92 82 51 70 92 25 72 24 92 80
          56 24 95 59 86 54 79 62 66 64 83 71 95 59 66 79 64 38 0 38 79 90 65 93
          63 89 84 88 41 78 12 84 41 78 41 12 78 97 27 89 63 93 81 80 53 58 81 80
          58 10 11 58 10 81 66 85 38 73 65 93 89 50 27 63 89 26 93 68 63 27 93 68
          27 83 27 45 89 93 87 93 65 50 59 86 54 94 89 63 65 70 13 54 86 94 55 86
          54 95 65 93 87 69 0 1 2 3 4 5 6 7
        </DataArray>
        <DataArray Name="offsets" type="UInt32" format="ascii" RangeMin="2" RangeMax="1670">
          2 4 6 8 10 12 14 16 18 20 22 24 26 28 30 32 34
          36 38 40 42 44 46 48 50 52 54 56 58 60 62 65 68 71
          74 77 80 83 86 89 92 95 98 101 104 107 110 113 116 119 122
          125 128 131 134 137 140 143 146 149 152 155 158 161 164 167 170 173
          176 179 182 185 188 191 194 197 200 203 206 209 212 215 218 221 224
          227 230 233 236 239 242 245 248 251 254 257 260 263 266 269 272 275
          278 281 284 287 290 293 296 299 302 305 308 311 314 317 320 323 326
          329 332 335 338 341 344 347 350 353 356 359 362 365 368 371 374 377
          380 383 386 389 392 395 398 401 404 407 410 413 416 419 422 425 428
          431 434 437 440 443 446 449 452 455 458 461 464 467 470 473 476 479
          482 485 488 491 494 498 502 506 510 514 518 522 526 530 534 538 542
          546 550 554 558 562 566 570 574 578 582 586 590 594 598 602 606 610
          614 618 622 626 630 634 638 642 646 650 654 658 662 666 670 674 678
          682 686 690 694 698 702 706 710 714 718 722 726 730 734 738 742 746
          750 754 758 762 766 770 774 778 782 786 790 794 798 802 806 810 814
          818 822 826 830 834 838 842 846 850 854 858 862 866 870 874 878 882
          886 890 894 898 902 906 910 914 918 922 926 930 934 938 942 946 950
          954 958 962 966 970 974 978 982 986 990 994 998 1002 1006 1010 1014 1018
          1022 1026 1030 1034 1038 1042 1046 1050 1054 1058 1062 1066 1070 1074 1078 1082 1086
          1090 1094 1098 1102 1106 1110 1114 1118 1122 1126 1130 1134 1138 1142 1146 1150 1154
          1158 1162 1166 1170 1174 1178 1182 1186 1190 1194 1198 1202 1206 1210 1214 1218 1222
          1226 1230 1234 1238 1242 1246 1250 1254 1258 1262 1266 1270 1274 1278 1282 1286 1290
          1294 1298 1302 1306 1310 1314 1318 1322 1326 1330 1334 1338 1342 1346 1350 1354 1358
          1362 1366 1370 1374 1378 1382 1386 1390 1394 1398 1402 1406 1410 1414 1418 1422 1426
          1430 1434 1438 1442 1446 1450 1454 1458 1462 1466 1470 1474 1478 1482 1486 1490 1494
          1498 1502 1506 1510 1514 1518 1522 1526 1530 1534 1538 1542 1546 1550 1554 1558 1562
          1566 1570 1574 1578 1582 1586 1590 1594 1598 1602 1606 1610 1614 1618 1622 1626 1630
          1634 1638 1642 1646 1650 1654 1658 1662 1663 1664 1665 1666 1667 1668 1669 1670
        </DataArray>
        <DataArray Name="types" type="UInt8" format="ascii" RangeMin="1" RangeMax="10">
          3 3 3 3 3 3 3 3 3 3 3 3 3 3 3 3 3 3 3 3 3 3 3 3
          3 3 3 3 3 3 3 5 5 5 5 5 5 5 5 5 5 5 5 5 5 5 5 5
          5 5 5 5 5 5 5 5 5 5 5 5 5 5 5 5 5 5 5 5 5 5 5 5
          5 5 5 5 5 5 5 5 5 5 5 5 5 5 5 5 5 5 5 5 5 5 5 5
          5 5 5 5 5 5 5 5 5 5 5 5 5 5 5 5 5 5 5 5 5 5 5 5
          5 5 5 5 5 5 5 5 5 5 5 5 5 5 5 5 5 5 5 5 5 5 5 5
          5 5 5 5 5 5 5 5 5 5 5 5 5 5 5 5 5 5 5 5 5 5 5 5
          5 5 5 5 5 5 5 10 10 10 10 10 10 10 10 10 10 10 10 10 10 10 10 10
          10 10 10 10 10 10 10 10 10 10 10 10 10 10 10 10 10 10 10 10 10 10 10 10
          10 10 10 10 10 10 10 10 10 10 10 10 10 10 10 10 10 10 10 10 10 10 10 10
          10 10 10 10 10 10 10 10 10 10 10 10 10 10 10 10 10 10 10 10 10 10 10 10
          10 10 10 10 10 10 10 10 10 10 10 10 10 10 10 10 10 10 10 10 10 10 10 10
          10 10 10 10 10 10 10 10 10 10 10 10 10 10 10 10 10 10 10 10 10 10 10 10
          10 10 10 10 10 10 10 10 10 10 10 10 10 10 10 10 10 10 10 10 10 10 10 10
          10 10 10 10 10 10 10 10 10 10 10 10 10 10 10 10 10 10 10 10 10 10 10 10
          10 10 10 10 10 10 10 10 10 10 10 10 10 10 10 10 10 10 10 10 10 10 10 10
          10 10 10 10 10 10 10 10 10 10 10 10 10 10 10 10 10 10 10 10 10 10 10 10
          10 10 10 10 10 10 10 10 10 10 10 10 10 10 10 10 10 10 10 10 10 10 10 10
          10 10 10 10 10 10 10 10 10 10 10 10 10 10 10 10 10 10 10 10 10 10 10 10
          10 10 10 10 10 10 10 10 10 10 10 1 1 1 1 1 1 1 1
        </DataArray>
      </Cells>
    </Piece>
  </UnstructuredGrid>
</VTKFile>